Version identifier: 20.1.0.0 | 2020-11-10 | 9bedb6d68
CPXPARAM_Threads                                 1
CPXPARAM_TimeLimit                               100
Generic callback                                 0xfe
Tried aggregator 1 time.
MIP Presolve eliminated 4 rows and 8 columns.
MIP Presolve modified 6 coefficients.
Reduced MIP has 38 rows, 147 columns, and 399 nonzeros.
Reduced MIP has 146 binaries, 0 generals, 0 SOSs, and 0 indicators.
Presolve time = 0.00 sec. (0.19 ticks)
Probing time = 0.00 sec. (0.14 ticks)
Tried aggregator 1 time.
Reduced MIP has 38 rows, 147 columns, and 399 nonzeros.
Reduced MIP has 146 binaries, 0 generals, 0 SOSs, and 0 indicators.
Presolve time = 0.00 sec. (0.18 ticks)
Probing time = 0.00 sec. (0.14 ticks)
Clique table members: 145.
MIP emphasis: balance optimality and feasibility.
MIP search method: dynamic search.
Parallel mode: none, using 1 thread.
Root relaxation solution time = 0.00 sec. (0.07 ticks)

        Nodes                                         Cuts/
   Node  Left     Objective  IInf  Best Integer    Best Bound    ItCnt     Gap

      0     0     5594.1433    17                      0.0000        0         
*     0+    0                         7076.5200     5594.1433            20.95%
      0     0     5648.9727    18     7076.5200      Fract: 1        7   20.17%
      0     0     5708.7788    18     7076.5200      Fract: 1       15   19.33%

Repeating presolve.
Tried aggregator 2 times.
MIP Presolve eliminated 8 rows and 86 columns.
Aggregator did 9 substitutions.
Reduced MIP has 21 rows, 52 columns, and 131 nonzeros.
Reduced MIP has 51 binaries, 0 generals, 0 SOSs, and 0 indicators.
Presolve time = 0.00 sec. (0.13 ticks)
Probing fixed 12 vars, tightened 0 bounds.
Probing time = 0.00 sec. (0.06 ticks)
Tried aggregator 1 time.
MIP Presolve eliminated 0 rows and 12 columns.
Reduced MIP has 21 rows, 40 columns, and 95 nonzeros.
Reduced MIP has 39 binaries, 0 generals, 0 SOSs, and 0 indicators.
Presolve time = 0.00 sec. (0.04 ticks)
Probing time = 0.00 sec. (0.03 ticks)
Tried aggregator 1 time.
Reduced MIP has 21 rows, 40 columns, and 95 nonzeros.
Reduced MIP has 39 binaries, 0 generals, 0 SOSs, and 0 indicators.
Presolve time = 0.00 sec. (0.04 ticks)
Represolve time = 0.00 sec. (0.53 ticks)
Probing time = 0.00 sec. (0.03 ticks)
Clique table members: 81.
MIP emphasis: balance optimality and feasibility.
MIP search method: dynamic search.
Parallel mode: none, using 1 thread.
Root relaxation solution time = 0.00 sec. (0.13 ticks)

        Nodes                                         Cuts/
   Node  Left     Objective  IInf  Best Integer    Best Bound    ItCnt     Gap

*     0+    0                         7076.5200     5708.7788            19.33%
      0     0     5762.2413    12     7076.5200     5762.2413       43   18.57%
      0     2     5792.5187    15     7076.5200     5805.0322       43   17.97%
Elapsed time = 1.31 sec. (8.30 ticks, tree = 0.01 MB, solutions = 1)

Gomory fractional cuts applied:  2
User cuts applied:  23

Root node processing (before b&c):
  Real time             =    1.31 sec. (8.31 ticks)
Sequential b&c:
  Real time             =    0.00 sec. (1.06 ticks)
                          ------------
Total (root+branch&cut) =    1.31 sec. (9.37 ticks)
SOLUTION ADMISSIBLE TROUVEE 7076.52 7076.52 61.0 64.0
